NAME : N60ft210.dat.12732.tour
COMMENT : Length = 12732
COMMENT : Found by LKH [Keld Helsgaun] Sat Nov 11 16:42:00 2017
TYPE : TOUR
DIMENSION : 60
TOUR_SECTION
1
21
2
23
38
5
28
35
17
54
22
3
37
47
58
24
59
32
6
9
19
15
33
56
27
14
8
26
53
16
55
30
34
44
36
13
51
4
41
18
48
52
25
29
31
45
46
20
40
39
7
60
49
12
42
43
57
50
10
11
-1
EOF
